NAME          BLANK   
ROWS
 N  OBJROW
 L  R0000000
COLUMNS
    C0000000  OBJROW     -420.         R0000000  930.        
    C0000001  OBJROW     -999.         R0000000  17.         
    C0000002  OBJROW     -20.          R0000000  400.        
    C0000003  OBJROW     -496.         R0000000  673.        
    C0000004  OBJROW     -838.         R0000000  912.        
    C0000005  OBJROW     -503.         R0000000  74.         
    C0000006  OBJROW     -144.         R0000000  361.        
    C0000007  OBJROW     -193.         R0000000  965.        
    C0000008  OBJROW     -376.         R0000000  534.        
    C0000009  OBJROW     -98.          R0000000  365.        
    C0000010  OBJROW     -971.         R0000000  654.        
    C0000011  OBJROW     -847.         R0000000  910.        
    C0000012  OBJROW     -73.          R0000000  292.        
    C0000013  OBJROW     -81.          R0000000  873.        
    C0000014  OBJROW     -320.         R0000000  424.        
    C0000015  OBJROW     -944.         R0000000  496.        
    C0000016  OBJROW     -946.         R0000000  985.        
RHS
    RHS       R0000000  16386.      
BOUNDS
 BV BOUND     C0000000  1.          
 BV BOUND     C0000001  1.          
 BV BOUND     C0000002  1.          
 BV BOUND     C0000003  1.          
 BV BOUND     C0000004  1.          
 BV BOUND     C0000005  1.          
 BV BOUND     C0000006  1.          
 BV BOUND     C0000007  1.          
 BV BOUND     C0000008  1.          
 BV BOUND     C0000009  1.          
 BV BOUND     C0000010  1.          
 BV BOUND     C0000011  1.          
 BV BOUND     C0000012  1.          
 BV BOUND     C0000013  1.          
 BV BOUND     C0000014  1.          
 BV BOUND     C0000015  1.          
 BV BOUND     C0000016  1.          
ENDATA
